
Gurobi 13.0.2 (win64) logging started Thu Jul 23 17:13:22 2026

Set parameter LogFile to value "E:\codes\ExactEBRP\results\gf_gurobi_performance_recovery_round29\runs\stage2__moderate_seed5302__c4_candidate__300s\external\native_logs\L0.0.1.0.1.0.0.1_lp.gurobi.log"
Gurobi Optimizer version 13.0.2 build v13.0.2rc1 (win64 - Windows 10.0 (19045.2))

CPU model: 12th Gen Intel(R) Core(TM) i7-12700KF, instruction set [SSE2|AVX|AVX2]
Thread count: 12 physical cores, 20 logical processors, using up to 1 threads

Non-default parameters:
TimeLimit  8.5500126200000011e+01
MIPGap  0
MIPGapAbs  0
LogToConsole  0
Threads  1

Optimize a model with 11931 rows, 3382 columns and 67404 nonzeros (Min)
Model fingerprint: 0x317dc4e2
Model has 21 linear objective coefficients
Coefficient statistics:
  Matrix range     [9e-03, 2e+04]
  Objective range  [9e-03, 1e+00]
  Bounds range     [9e-03, 2e+02]
  RHS range        [9e-03, 5e+04]

Presolve removed 454 rows and 102 columns
Presolve time: 0.04s
Presolved: 11477 rows, 3469 columns, 66326 nonzeros

Iteration    Objective       Primal Inf.    Dual Inf.      Time
       0    8.7830963e-03   1.804869e+02   0.000000e+00      0s
    3925    1.6249191e-02   0.000000e+00   0.000000e+00      0s

Solved in 3925 iterations and 0.29 seconds (0.90 work units)
Optimal objective  1.624919102e-02

User-callback calls 4069, time in user-callback 0.00 sec
